proyfinal/src/viki/013/experimentInOfficeAgust.take6.output/08bf9624-ae61-42dd-8dbd-9513aee97d56.als.dat
{'cnf.clauses': '118081',
 'cnf.totvars': '69608',
 'conflict literals': '11',
 'conflicts': '8',
 'decisions': '6871',
 'memused.mb': '14.85',
 'outcome': 'UNSAT',
 'propagations': '35733',
 'restarts': '1',
 'solver.msecs': 28,
 'task.msecs': 81}
