proyfinal/src/viki/013/experimentInOfficeAgust.take6.output/08bf9624-ae61-42dd-8dbd-9513aee97d56.als.out
Reading from standard input... Use '--help' for help.
============================[ Problem Statistics ]=============================
|                                                                             |
|  Number of variables:         69608                                         |
|  Number of clauses:          118081                                         |
|  Parse time:                   0.02 s                                       |
|                                                                             |
============================[ Search Statistics ]==============================
| Conflicts |          ORIGINAL         |          LEARNT          | Progress |
|           |    Vars  Clauses Literals |    Limit  Clauses Lit/Cl |          |
===============================================================================
===============================================================================
restarts              : 1
conflicts             : 8              (280 /sec)
decisions             : 6871           (0.00 % random) (240784 /sec)
propagations          : 35733          (1252208 /sec)
conflict literals     : 11             (0.00 % deleted)
Memory used           : 14.85 MB
CPU time              : 0.028536 s

UNSATISFIABLE
